p cnf 256 1
256 0
w 1 0.472313
w 2 1 1
w 2 -1 0
w 3 2 0.718474
w 3 -2 0.265716
w 4 3 1
w 4 -3 0
w 5 4 1
w 5 -4 0
w 6 5 0.787067
w 6 -5 0.91162
w 7 6 1
w 7 -6 0
w 8 7 0.287247
w 8 -7 0.00634338
w 9 8 0.147175
w 9 -8 0.88256
w 10 9 0
w 10 -9 1
w 11 10 0.752698
w 11 -10 0.759841
w 12 11 1
w 12 -11 0
w 13 12 1
w 13 -12 0
w 14 13 0.778547
w 14 -13 0.753762
w 15 14 0
w 15 -14 1
w 16 15 1
w 16 -15 0
w 17 1 1
w 17 -1 0
w 18 17 2 1
w 18 17 -2 1
w 18 -17 2 0
w 18 -17 -2 1
w 19 18 3 1
w 19 18 -3 1
w 19 -18 3 1
w 19 -18 -3 0
w 20 19 4 1
w 20 19 -4 0
w 20 -19 4 0
w 20 -19 -4 0
w 21 20 5 0.91519
w 21 20 -5 0.0268823
w 21 -20 5 0.867098
w 21 -20 -5 0.221424
w 22 21 6 0
w 22 21 -6 0
w 22 -21 6 1
w 22 -21 -6 0
w 23 22 7 0
w 23 22 -7 1
w 23 -22 7 1
w 23 -22 -7 1
w 24 23 8 1
w 24 23 -8 1
w 24 -23 8 0
w 24 -23 -8 0
w 25 24 9 0.686971
w 25 24 -9 0.387708
w 25 -24 9 0.719685
w 25 -24 -9 0.837591
w 26 25 10 1
w 26 25 -10 0
w 26 -25 10 0
w 26 -25 -10 1
w 27 26 11 0.86993
w 27 26 -11 0.797635
w 27 -26 11 0.848626
w 27 -26 -11 0.737028
w 28 27 12 1
w 28 27 -12 1
w 28 -27 12 0
w 28 -27 -12 0
w 29 28 13 1
w 29 28 -13 0
w 29 -28 13 1
w 29 -28 -13 1
w 30 29 14 1
w 30 29 -14 0
w 30 -29 14 1
w 30 -29 -14 0
w 31 30 15 0.797867
w 31 30 -15 0.00842814
w 31 -30 15 0.260775
w 31 -30 -15 0.517552
w 32 31 16 0.308009
w 32 31 -16 0.244648
w 32 -31 16 0.71679
w 32 -31 -16 0.390242
w 33 17 0
w 33 -17 1
w 34 33 18 0
w 34 33 -18 1
w 34 -33 18 1
w 34 -33 -18 1
w 35 34 19 0
w 35 34 -19 0
w 35 -34 19 1
w 35 -34 -19 1
w 36 35 20 0
w 36 35 -20 0
w 36 -35 20 1
w 36 -35 -20 0
w 37 36 21 0
w 37 36 -21 0
w 37 -36 21 1
w 37 -36 -21 0
w 38 37 22 1
w 38 37 -22 0
w 38 -37 22 1
w 38 -37 -22 1
w 39 38 23 1
w 39 38 -23 1
w 39 -38 23 1
w 39 -38 -23 0
w 40 39 24 0
w 40 39 -24 1
w 40 -39 24 0
w 40 -39 -24 0
w 41 40 25 0.620595
w 41 40 -25 0.615382
w 41 -40 25 0.500517
w 41 -40 -25 0.158439
w 42 41 26 1
w 42 41 -26 0
w 42 -41 26 0
w 42 -41 -26 1
w 43 42 27 0
w 43 42 -27 1
w 43 -42 27 1
w 43 -42 -27 1
w 44 43 28 1
w 44 43 -28 0
w 44 -43 28 0
w 44 -43 -28 0
w 45 44 29 0
w 45 44 -29 0
w 45 -44 29 1
w 45 -44 -29 1
w 46 45 30 0.875853
w 46 45 -30 0.967996
w 46 -45 30 0.147615
w 46 -45 -30 0.533633
w 47 46 31 0
w 47 46 -31 1
w 47 -46 31 0
w 47 -46 -31 0
w 48 47 32 1
w 48 47 -32 1
w 48 -47 32 1
w 48 -47 -32 0
w 49 33 1
w 49 -33 0
w 50 49 34 1
w 50 49 -34 1
w 50 -49 34 1
w 50 -49 -34 0
w 51 50 35 0
w 51 50 -35 0
w 51 -50 35 0
w 51 -50 -35 1
w 52 51 36 1
w 52 51 -36 0
w 52 -51 36 0
w 52 -51 -36 0
w 53 52 37 1
w 53 52 -37 0
w 53 -52 37 1
w 53 -52 -37 1
w 54 53 38 0.836253
w 54 53 -38 0.122454
w 54 -53 38 0.162973
w 54 -53 -38 0.901369
w 55 54 39 1
w 55 54 -39 1
w 55 -54 39 0
w 55 -54 -39 1
w 56 55 40 1
w 56 55 -40 0
w 56 -55 40 1
w 56 -55 -40 0
w 57 56 41 0.799995
w 57 56 -41 0.707588
w 57 -56 41 0.655628
w 57 -56 -41 0.924729
w 58 57 42 1
w 58 57 -42 0
w 58 -57 42 0
w 58 -57 -42 1
w 59 58 43 0
w 59 58 -43 1
w 59 -58 43 0
w 59 -58 -43 1
w 60 59 44 0
w 60 59 -44 1
w 60 -59 44 0
w 60 -59 -44 0
w 61 60 45 0
w 61 60 -45 0
w 61 -60 45 1
w 61 -60 -45 0
w 62 61 46 0
w 62 61 -46 1
w 62 -61 46 1
w 62 -61 -46 1
w 63 62 47 0.264989
w 63 62 -47 0.255627
w 63 -62 47 0.584571
w 63 -62 -47 0.920617
w 64 63 48 1
w 64 63 -48 0
w 64 -63 48 1
w 64 -63 -48 1
w 65 49 0
w 65 -49 1
w 66 65 50 1
w 66 65 -50 0
w 66 -65 50 1
w 66 -65 -50 1
w 67 66 51 0.000846762
w 67 66 -51 0.0485717
w 67 -66 51 0.838562
w 67 -66 -51 0.145209
w 68 67 52 1
w 68 67 -52 1
w 68 -67 52 0
w 68 -67 -52 0
w 69 68 53 0.218916
w 69 68 -53 0.689614
w 69 -68 53 0.410273
w 69 -68 -53 0.0958995
w 70 69 54 0.6659
w 70 69 -54 0.680471
w 70 -69 54 0.875219
w 70 -69 -54 0.846256
w 71 70 55 1
w 71 70 -55 0
w 71 -70 55 0
w 71 -70 -55 0
w 72 71 56 0.331395
w 72 71 -56 0.838666
w 72 -71 56 0.541842
w 72 -71 -56 0.787124
w 73 72 57 0
w 73 72 -57 0
w 73 -72 57 1
w 73 -72 -57 0
w 74 73 58 0.234759
w 74 73 -58 0.727819
w 74 -73 58 0.101687
w 74 -73 -58 0.1894
w 75 74 59 0.791301
w 75 74 -59 0.599672
w 75 -74 59 0.0426343
w 75 -74 -59 0.745903
w 76 75 60 0
w 76 75 -60 0
w 76 -75 60 1
w 76 -75 -60 0
w 77 76 61 0
w 77 76 -61 0
w 77 -76 61 1
w 77 -76 -61 0
w 78 77 62 0
w 78 77 -62 0
w 78 -77 62 1
w 78 -77 -62 0
w 79 78 63 0
w 79 78 -63 0
w 79 -78 63 1
w 79 -78 -63 0
w 80 79 64 1
w 80 79 -64 1
w 80 -79 64 1
w 80 -79 -64 0
w 81 65 0
w 81 -65 1
w 82 81 66 0
w 82 81 -66 0
w 82 -81 66 1
w 82 -81 -66 0
w 83 82 67 0
w 83 82 -67 0
w 83 -82 67 0
w 83 -82 -67 1
w 84 83 68 0
w 84 83 -68 0
w 84 -83 68 1
w 84 -83 -68 1
w 85 84 69 1
w 85 84 -69 1
w 85 -84 69 1
w 85 -84 -69 0
w 86 85 70 0.603065
w 86 85 -70 0.962104
w 86 -85 70 0.840676
w 86 -85 -70 0.724952
w 87 86 71 0
w 87 86 -71 1
w 87 -86 71 1
w 87 -86 -71 1
w 88 87 72 0.552792
w 88 87 -72 0.78789
w 88 -87 72 0.724179
w 88 -87 -72 0.144841
w 89 88 73 0
w 89 88 -73 0
w 89 -88 73 0
w 89 -88 -73 1
w 90 89 74 1
w 90 89 -74 0
w 90 -89 74 0
w 90 -89 -74 0
w 91 90 75 0.326718
w 91 90 -75 0.947065
w 91 -90 75 0.2922
w 91 -90 -75 0.986175
w 92 91 76 0.895265
w 92 91 -76 0.948279
w 92 -91 76 0.685866
w 92 -91 -76 0.620218
w 93 92 77 0
w 93 92 -77 0
w 93 -92 77 0
w 93 -92 -77 1
w 94 93 78 1
w 94 93 -78 0
w 94 -93 78 1
w 94 -93 -78 1
w 95 94 79 0
w 95 94 -79 1
w 95 -94 79 1
w 95 -94 -79 1
w 96 95 80 0
w 96 95 -80 1
w 96 -95 80 0
w 96 -95 -80 0
w 97 81 1
w 97 -81 0
w 98 97 82 0
w 98 97 -82 1
w 98 -97 82 0
w 98 -97 -82 0
w 99 98 83 0
w 99 98 -83 1
w 99 -98 83 0
w 99 -98 -83 1
w 100 99 84 0
w 100 99 -84 1
w 100 -99 84 0
w 100 -99 -84 1
w 101 100 85 0
w 101 100 -85 1
w 101 -100 85 1
w 101 -100 -85 1
w 102 101 86 0.690752
w 102 101 -86 0.462904
w 102 -101 86 0.0669455
w 102 -101 -86 0.150734
w 103 102 87 1
w 103 102 -87 0
w 103 -102 87 0
w 103 -102 -87 0
w 104 103 88 1
w 104 103 -88 0
w 104 -103 88 1
w 104 -103 -88 1
w 105 104 89 0
w 105 104 -89 1
w 105 -104 89 0
w 105 -104 -89 1
w 106 105 90 1
w 106 105 -90 1
w 106 -105 90 1
w 106 -105 -90 0
w 107 106 91 0
w 107 106 -91 1
w 107 -106 91 0
w 107 -106 -91 1
w 108 107 92 0.943528
w 108 107 -92 0.682206
w 108 -107 92 0.902542
w 108 -107 -92 0.455044
w 109 108 93 1
w 109 108 -93 1
w 109 -108 93 0
w 109 -108 -93 1
w 110 109 94 0.490008
w 110 109 -94 0.773018
w 110 -109 94 0.536367
w 110 -109 -94 0.487507
w 111 110 95 0.838918
w 111 110 -95 0.632338
w 111 -110 95 0.262934
w 111 -110 -95 0.9599
w 112 111 96 1
w 112 111 -96 0
w 112 -111 96 0
w 112 -111 -96 0
w 113 97 0
w 113 -97 1
w 114 113 98 1
w 114 113 -98 0
w 114 -113 98 0
w 114 -113 -98 1
w 115 114 99 0
w 115 114 -99 0
w 115 -114 99 1
w 115 -114 -99 0
w 116 115 100 0
w 116 115 -100 1
w 116 -115 100 0
w 116 -115 -100 0
w 117 116 101 0
w 117 116 -101 0
w 117 -116 101 1
w 117 -116 -101 0
w 118 117 102 1
w 118 117 -102 1
w 118 -117 102 0
w 118 -117 -102 1
w 119 118 103 1
w 119 118 -103 0
w 119 -118 103 1
w 119 -118 -103 1
w 120 119 104 0.171758
w 120 119 -104 0.593369
w 120 -119 104 0.074637
w 120 -119 -104 0.729922
w 121 120 105 0
w 121 120 -105 0
w 121 -120 105 0
w 121 -120 -105 1
w 122 121 106 1
w 122 121 -106 0
w 122 -121 106 1
w 122 -121 -106 1
w 123 122 107 0
w 123 122 -107 1
w 123 -122 107 1
w 123 -122 -107 1
w 124 123 108 0.664279
w 124 123 -108 0.0230272
w 124 -123 108 0.860934
w 124 -123 -108 0.363826
w 125 124 109 1
w 125 124 -109 1
w 125 -124 109 0
w 125 -124 -109 1
w 126 125 110 1
w 126 125 -110 0
w 126 -125 110 1
w 126 -125 -110 0
w 127 126 111 0.100841
w 127 126 -111 0.59403
w 127 -126 111 0.579981
w 127 -126 -111 0.547441
w 128 127 112 0
w 128 127 -112 1
w 128 -127 112 0
w 128 -127 -112 0
w 129 113 0
w 129 -113 1
w 130 129 114 0.0748329
w 130 129 -114 0.541403
w 130 -129 114 0.585065
w 130 -129 -114 0.739112
w 131 130 115 1
w 131 130 -115 1
w 131 -130 115 1
w 131 -130 -115 0
w 132 131 116 0.216093
w 132 131 -116 0.42584
w 132 -131 116 0.8238
w 132 -131 -116 0.396383
w 133 132 117 1
w 133 132 -117 1
w 133 -132 117 0
w 133 -132 -117 0
w 134 133 118 1
w 134 133 -118 0
w 134 -133 118 1
w 134 -133 -118 0
w 135 134 119 0
w 135 134 -119 1
w 135 -134 119 1
w 135 -134 -119 1
w 136 135 120 1
w 136 135 -120 0
w 136 -135 120 1
w 136 -135 -120 0
w 137 136 121 0
w 137 136 -121 1
w 137 -136 121 0
w 137 -136 -121 1
w 138 137 122 0.102328
w 138 137 -122 0.610986
w 138 -137 122 0.316791
w 138 -137 -122 0.926128
w 139 138 123 1
w 139 138 -123 1
w 139 -138 123 1
w 139 -138 -123 0
w 140 139 124 0
w 140 139 -124 1
w 140 -139 124 0
w 140 -139 -124 1
w 141 140 125 1
w 141 140 -125 1
w 141 -140 125 0
w 141 -140 -125 0
w 142 141 126 0.507337
w 142 141 -126 0.714409
w 142 -141 126 0.139248
w 142 -141 -126 0.13024
w 143 142 127 0
w 143 142 -127 0
w 143 -142 127 0
w 143 -142 -127 1
w 144 143 128 0.398946
w 144 143 -128 0.323452
w 144 -143 128 0.282904
w 144 -143 -128 0.325075
w 145 129 0
w 145 -129 1
w 146 145 130 0
w 146 145 -130 0
w 146 -145 130 1
w 146 -145 -130 0
w 147 146 131 1
w 147 146 -131 1
w 147 -146 131 0
w 147 -146 -131 0
w 148 147 132 1
w 148 147 -132 0
w 148 -147 132 0
w 148 -147 -132 0
w 149 148 133 0.670738
w 149 148 -133 0.68964
w 149 -148 133 0.01035
w 149 -148 -133 0.837202
w 150 149 134 0
w 150 149 -134 1
w 150 -149 134 1
w 150 -149 -134 0
w 151 150 135 1
w 151 150 -135 0
w 151 -150 135 0
w 151 -150 -135 0
w 152 151 136 1
w 152 151 -136 1
w 152 -151 136 0
w 152 -151 -136 0
w 153 152 137 1
w 153 152 -137 0
w 153 -152 137 1
w 153 -152 -137 0
w 154 153 138 0.107746
w 154 153 -138 0.991903
w 154 -153 138 0.978079
w 154 -153 -138 0.639235
w 155 154 139 0
w 155 154 -139 1
w 155 -154 139 0
w 155 -154 -139 1
w 156 155 140 0
w 156 155 -140 1
w 156 -155 140 1
w 156 -155 -140 1
w 157 156 141 0.813762
w 157 156 -141 0.0109648
w 157 -156 141 0.298665
w 157 -156 -141 0.671604
w 158 157 142 0
w 158 157 -142 0
w 158 -157 142 0
w 158 -157 -142 1
w 159 158 143 1
w 159 158 -143 0
w 159 -158 143 1
w 159 -158 -143 0
w 160 159 144 0.0184856
w 160 159 -144 0.323733
w 160 -159 144 0.881546
w 160 -159 -144 0.996564
w 161 145 0.432849
w 161 -145 0.813206
w 162 161 146 1
w 162 161 -146 0
w 162 -161 146 1
w 162 -161 -146 1
w 163 162 147 1
w 163 162 -147 0
w 163 -162 147 1
w 163 -162 -147 1
w 164 163 148 0.815501
w 164 163 -148 0.186478
w 164 -163 148 0.285664
w 164 -163 -148 0.505868
w 165 164 149 0
w 165 164 -149 0
w 165 -164 149 0
w 165 -164 -149 1
w 166 165 150 1
w 166 165 -150 0
w 166 -165 150 1
w 166 -165 -150 0
w 167 166 151 1
w 167 166 -151 1
w 167 -166 151 1
w 167 -166 -151 0
w 168 167 152 0
w 168 167 -152 1
w 168 -167 152 0
w 168 -167 -152 0
w 169 168 153 0.495606
w 169 168 -153 0.374765
w 169 -168 153 0.781426
w 169 -168 -153 0.0124422
w 170 169 154 0.682172
w 170 169 -154 0.827943
w 170 -169 154 0.0761179
w 170 -169 -154 0.967836
w 171 170 155 0
w 171 170 -155 0
w 171 -170 155 1
w 171 -170 -155 0
w 172 171 156 0
w 172 171 -156 1
w 172 -171 156 0
w 172 -171 -156 0
w 173 172 157 0
w 173 172 -157 1
w 173 -172 157 0
w 173 -172 -157 1
w 174 173 158 0
w 174 173 -158 0
w 174 -173 158 1
w 174 -173 -158 0
w 175 174 159 0
w 175 174 -159 1
w 175 -174 159 1
w 175 -174 -159 0
w 176 175 160 1
w 176 175 -160 0
w 176 -175 160 0
w 176 -175 -160 0
w 177 161 0
w 177 -161 1
w 178 177 162 0
w 178 177 -162 0
w 178 -177 162 0
w 178 -177 -162 1
w 179 178 163 0
w 179 178 -163 1
w 179 -178 163 1
w 179 -178 -163 1
w 180 179 164 1
w 180 179 -164 0
w 180 -179 164 1
w 180 -179 -164 0
w 181 180 165 1
w 181 180 -165 0
w 181 -180 165 0
w 181 -180 -165 1
w 182 181 166 1
w 182 181 -166 0
w 182 -181 166 1
w 182 -181 -166 1
w 183 182 167 0.624855
w 183 182 -167 0.373765
w 183 -182 167 0.821339
w 183 -182 -167 0.100341
w 184 183 168 0
w 184 183 -168 1
w 184 -183 168 0
w 184 -183 -168 0
w 185 184 169 0.894805
w 185 184 -169 0.639123
w 185 -184 169 0.462002
w 185 -184 -169 0.363532
w 186 185 170 0
w 186 185 -170 0
w 186 -185 170 1
w 186 -185 -170 0
w 187 186 171 1
w 187 186 -171 1
w 187 -186 171 1
w 187 -186 -171 0
w 188 187 172 0.427139
w 188 187 -172 0.398803
w 188 -187 172 0.244949
w 188 -187 -172 0.706016
w 189 188 173 1
w 189 188 -173 0
w 189 -188 173 1
w 189 -188 -173 1
w 190 189 174 0
w 190 189 -174 0
w 190 -189 174 1
w 190 -189 -174 1
w 191 190 175 0
w 191 190 -175 0
w 191 -190 175 1
w 191 -190 -175 0
w 192 191 176 1
w 192 191 -176 1
w 192 -191 176 0
w 192 -191 -176 0
w 193 177 1
w 193 -177 0
w 194 193 178 0.913488
w 194 193 -178 0.446974
w 194 -193 178 0.619435
w 194 -193 -178 0.340627
w 195 194 179 0.864384
w 195 194 -179 0.0466434
w 195 -194 179 0.0649469
w 195 -194 -179 0.734189
w 196 195 180 1
w 196 195 -180 0
w 196 -195 180 1
w 196 -195 -180 0
w 197 196 181 1
w 197 196 -181 0
w 197 -196 181 1
w 197 -196 -181 1
w 198 197 182 1
w 198 197 -182 0
w 198 -197 182 1
w 198 -197 -182 0
w 199 198 183 0.86689
w 199 198 -183 0.562167
w 199 -198 183 0.166741
w 199 -198 -183 0.613349
w 200 199 184 1
w 200 199 -184 1
w 200 -199 184 0
w 200 -199 -184 1
w 201 200 185 0.69032
w 201 200 -185 0.508225
w 201 -200 185 0.914107
w 201 -200 -185 0.755266
w 202 201 186 0
w 202 201 -186 1
w 202 -201 186 1
w 202 -201 -186 0
w 203 202 187 1
w 203 202 -187 1
w 203 -202 187 1
w 203 -202 -187 0
w 204 203 188 0
w 204 203 -188 0
w 204 -203 188 1
w 204 -203 -188 1
w 205 204 189 1
w 205 204 -189 1
w 205 -204 189 0
w 205 -204 -189 1
w 206 205 190 1
w 206 205 -190 0
w 206 -205 190 0
w 206 -205 -190 1
w 207 206 191 0
w 207 206 -191 0
w 207 -206 191 0
w 207 -206 -191 1
w 208 207 192 1
w 208 207 -192 1
w 208 -207 192 0
w 208 -207 -192 0
w 209 193 0
w 209 -193 1
w 210 209 194 1
w 210 209 -194 1
w 210 -209 194 0
w 210 -209 -194 0
w 211 210 195 0.0536523
w 211 210 -195 0.541674
w 211 -210 195 0.121284
w 211 -210 -195 0.498027
w 212 211 196 0.154388
w 212 211 -196 0.504568
w 212 -211 196 0.33706
w 212 -211 -196 0.800841
w 213 212 197 0.84253
w 213 212 -197 0.974131
w 213 -212 197 0.15733
w 213 -212 -197 0.991839
w 214 213 198 0
w 214 213 -198 1
w 214 -213 198 0
w 214 -213 -198 1
w 215 214 199 0
w 215 214 -199 0
w 215 -214 199 1
w 215 -214 -199 1
w 216 215 200 1
w 216 215 -200 0
w 216 -215 200 1
w 216 -215 -200 1
w 217 216 201 1
w 217 216 -201 1
w 217 -216 201 0
w 217 -216 -201 1
w 218 217 202 0.0717072
w 218 217 -202 0.562694
w 218 -217 202 0.483235
w 218 -217 -202 0.408768
w 219 218 203 0
w 219 218 -203 1
w 219 -218 203 0
w 219 -218 -203 0
w 220 219 204 0
w 220 219 -204 1
w 220 -219 204 0
w 220 -219 -204 1
w 221 220 205 0
w 221 220 -205 1
w 221 -220 205 1
w 221 -220 -205 0
w 222 221 206 0
w 222 221 -206 0
w 222 -221 206 1
w 222 -221 -206 1
w 223 222 207 0.787168
w 223 222 -207 0.66111
w 223 -222 207 0.191705
w 223 -222 -207 0.195473
w 224 223 208 0
w 224 223 -208 0
w 224 -223 208 0
w 224 -223 -208 1
w 225 209 0
w 225 -209 1
w 226 225 210 0.459367
w 226 225 -210 0.0641667
w 226 -225 210 0.166613
w 226 -225 -210 0.811919
w 227 226 211 0
w 227 226 -211 1
w 227 -226 211 0
w 227 -226 -211 0
w 228 227 212 1
w 228 227 -212 0
w 228 -227 212 1
w 228 -227 -212 1
w 229 228 213 0
w 229 228 -213 0
w 229 -228 213 0
w 229 -228 -213 1
w 230 229 214 0
w 230 229 -214 0
w 230 -229 214 1
w 230 -229 -214 0
w 231 230 215 0.336523
w 231 230 -215 0.696652
w 231 -230 215 0.583578
w 231 -230 -215 0.458225
w 232 231 216 1
w 232 231 -216 0
w 232 -231 216 1
w 232 -231 -216 1
w 233 232 217 0
w 233 232 -217 1
w 233 -232 217 0
w 233 -232 -217 0
w 234 233 218 1
w 234 233 -218 1
w 234 -233 218 0
w 234 -233 -218 1
w 235 234 219 0
w 235 234 -219 1
w 235 -234 219 0
w 235 -234 -219 0
w 236 235 220 0
w 236 235 -220 1
w 236 -235 220 0
w 236 -235 -220 0
w 237 236 221 0
w 237 236 -221 0
w 237 -236 221 1
w 237 -236 -221 1
w 238 237 222 0
w 238 237 -222 1
w 238 -237 222 0
w 238 -237 -222 0
w 239 238 223 1
w 239 238 -223 0
w 239 -238 223 1
w 239 -238 -223 1
w 240 239 224 1
w 240 239 -224 1
w 240 -239 224 0
w 240 -239 -224 1
w 241 225 0.927893
w 241 -225 0.709819
w 242 241 226 0
w 242 241 -226 1
w 242 -241 226 1
w 242 -241 -226 1
w 243 242 227 1
w 243 242 -227 0
w 243 -242 227 1
w 243 -242 -227 1
w 244 243 228 0
w 244 243 -228 1
w 244 -243 228 0
w 244 -243 -228 1
w 245 244 229 0
w 245 244 -229 1
w 245 -244 229 1
w 245 -244 -229 0
w 246 245 230 0.699146
w 246 245 -230 0.666432
w 246 -245 230 0.582843
w 246 -245 -230 0.00124898
w 247 246 231 0
w 247 246 -231 1
w 247 -246 231 0
w 247 -246 -231 0
w 248 247 232 0
w 248 247 -232 0
w 248 -247 232 1
w 248 -247 -232 1
w 249 248 233 0
w 249 248 -233 0
w 249 -248 233 0
w 249 -248 -233 1
w 250 249 234 0
w 250 249 -234 0
w 250 -249 234 0
w 250 -249 -234 1
w 251 250 235 0
w 251 250 -235 1
w 251 -250 235 1
w 251 -250 -235 1
w 252 251 236 0.564201
w 252 251 -236 0.148528
w 252 -251 236 0.452359
w 252 -251 -236 0.147044
w 253 252 237 1
w 253 252 -237 0
w 253 -252 237 0
w 253 -252 -237 0
w 254 253 238 1
w 254 253 -238 1
w 254 -253 238 0
w 254 -253 -238 0
w 255 254 239 0.726081
w 255 254 -239 0.00101888
w 255 -254 239 0.340469
w 255 -254 -239 0.58949
w 256 255 240 0
w 256 255 -240 0
w 256 -255 240 1
w 256 -255 -240 1